(set-info :original "/var/folders/xz/sgqbj6yn0yv_1mpy6_jqympm0000gn/T/sea-m5cU90/array12_pattern.pp.ms.o.bc")
(set-info :authors "SeaHorn v.0.1.0-rc3")
(declare-rel verifier.error (Bool Bool Bool ))
(declare-rel main@entry (Int Int ))
(declare-rel main@_bb (Int Int Int (Array Int Int) Int Int Int ))
(declare-rel main@_bb9 (Int Int Int (Array Int Int) Int Int ))
(declare-rel main@_bb12 (Int Int Int Int (Array Int Int) Int ))
(declare-rel main@verifier.error.split ())
(declare-rel main@_bb14 (Int Int Int Int Int (Array Int Int) Int ))
(declare-rel main@_bb5 (Int Int Int Int (Array Int Int) Int Int Int ))
(declare-var main@%_15_0 Int )
(declare-var main@%_16_0 Int )
(declare-var main@%_17_0 Int )
(declare-var main@%_12_0 Int )
(declare-var main@%_13_0 Bool )
(declare-var main@%_55_0 Int )
(declare-var main@%_56_0 Int )
(declare-var main@%_57_0 Int )
(declare-var main@%_58_0 Int )
(declare-var main@%_59_0 Int )
(declare-var main@%_52_0 Int )
(declare-var main@%_53_0 Bool )
(declare-var main@%_69_0 Bool )
(declare-var main@%_64_0 Bool )
(declare-var main@%_65_0 Int )
(declare-var main@%_66_0 Bool )
(declare-var main@%narrow.i_0 Bool )
(declare-var main@%_68_0 Bool )
(declare-var main@%_48_0 Int )
(declare-var main@%_49_0 Bool )
(declare-var main@%_23_0 Int )
(declare-var main@%_24_0 Int )
(declare-var main@%_25_0 Int )
(declare-var main@%_26_0 Int )
(declare-var main@%_27_0 Bool )
(declare-var main@%_28_0 Bool )
(declare-var main@%..i_0 Bool )
(declare-var main@%_29_0 Bool )
(declare-var main@%_30_0 Bool )
(declare-var main@%_31_0 Bool )
(declare-var main@%_32_0 Int )
(declare-var main@%_33_0 Int )
(declare-var main@%_34_0 Int )
(declare-var main@%_35_0 Int )
(declare-var main@%_36_0 Int )
(declare-var main@%sm1_0 (Array Int Int) )
(declare-var main@%_37_0 Int )
(declare-var main@%_38_0 Int )
(declare-var main@%_39_0 Int )
(declare-var main@%_40_0 Int )
(declare-var main@%_41_0 Int )
(declare-var main@%_42_0 Int )
(declare-var @__VERIFIER_nondet_int_0 Int )
(declare-var main@%_43_0 Int )
(declare-var main@%_44_0 Bool )
(declare-var main@%shadow.mem.0.2_2 (Array Int Int) )
(declare-var main@%_8_0 Int )
(declare-var main@%_9_0 Bool )
(declare-var main@%_0_0 Int )
(declare-var main@%_2_0 Bool )
(declare-var main@%_3_0 Int )
(declare-var @__VERIFIER_nondet_short_0 Int )
(declare-var main@entry_0 Bool )
(declare-var main@%sm3_0 (Array Int Int) )
(declare-var main@%_1_0 Int )
(declare-var main@%_4_0 Int )
(declare-var main@%_6_0 Int )
(declare-var main@_bb_0 Bool )
(declare-var main@%shadow.mem.0.0_0 (Array Int Int) )
(declare-var main@%.01.i_0 Int )
(declare-var main@%shadow.mem.0.0_1 (Array Int Int) )
(declare-var main@%.01.i_1 Int )
(declare-var main@_bb8_0 Bool )
(declare-var main@_bb9_0 Bool )
(declare-var main@%shadow.mem.0.2_0 (Array Int Int) )
(declare-var main@%shadow.mem.0.2_1 (Array Int Int) )
(declare-var main@_bb4_0 Bool )
(declare-var main@_bb5_0 Bool )
(declare-var main@%shadow.mem.0.1_0 (Array Int Int) )
(declare-var main@%.03.i_0 Int )
(declare-var main@%shadow.mem.0.1_1 (Array Int Int) )
(declare-var main@%.03.i_1 Int )
(declare-var main@%sm2_0 (Array Int Int) )
(declare-var main@_bb10_0 Bool )
(declare-var main@_bb9_1 Bool )
(declare-var main@_bb11_0 Bool )
(declare-var main@_bb12_0 Bool )
(declare-var main@%.12.i_0 Int )
(declare-var main@%.0.i_0 Int )
(declare-var main@%.12.i_1 Int )
(declare-var main@%.0.i_1 Int )
(declare-var main@orig.main.exit_0 Bool )
(declare-var main@%_67_0 Int )
(declare-var main@precall_0 Bool )
(declare-var main@__VERIFIER_assert_0 Bool )
(declare-var main@_bb17_0 Bool )
(declare-var main@verifier.error_0 Bool )
(declare-var main@verifier.error.split_0 Bool )
(declare-var main@_bb13_0 Bool )
(declare-var main@_bb14_0 Bool )
(declare-var main@%.14.i_0 Int )
(declare-var main@%.1.i_0 Int )
(declare-var main@%.14.i_1 Int )
(declare-var main@%.1.i_1 Int )
(declare-var main@_bb16_0 Bool )
(declare-var main@%_63_0 Int )
(declare-var main@%.12.i_2 Int )
(declare-var main@_bb15_0 Bool )
(declare-var main@%_60_0 Int )
(declare-var main@%_61_0 Int )
(declare-var main@_bb14_1 Bool )
(declare-var main@%.14.i_2 Int )
(declare-var main@%.1.i_2 Int )
(declare-var main@_bb7_0 Bool )
(declare-var main@%_20_0 Int )
(declare-var main@%.01.i_2 Int )
(declare-var main@_bb6_0 Bool )
(declare-var main@%sm_0 (Array Int Int) )
(declare-var main@%_18_0 Int )
(declare-var main@_bb5_1 Bool )
(declare-var main@%shadow.mem.0.1_2 (Array Int Int) )
(declare-var main@%.03.i_2 Int )
(rule (verifier.error false false false))
(rule (verifier.error false true true))
(rule (verifier.error true false true))
(rule (verifier.error true true true))
(rule (main@entry @__VERIFIER_nondet_short_0 @__VERIFIER_nondet_int_0))
(rule (=> (and (main@entry @__VERIFIER_nondet_short_0 @__VERIFIER_nondet_int_0)
         true
         (= main@%_0_0 @__VERIFIER_nondet_short_0)
         (= main@%_2_0 (> main@%_1_0 0))
         main@%_2_0
         (= main@%_3_0 main@%_1_0)
         (= main@%_4_0 main@%_1_0)
         (> main@%_6_0 0)
         (=> main@_bb_0 (and main@_bb_0 main@entry_0))
         (=> (and main@_bb_0 main@entry_0)
             (= main@%shadow.mem.0.0_0 main@%sm3_0))
         (=> (and main@_bb_0 main@entry_0) (= main@%.01.i_0 0))
         (=> (and main@_bb_0 main@entry_0)
             (= main@%shadow.mem.0.0_1 main@%shadow.mem.0.0_0))
         (=> (and main@_bb_0 main@entry_0) (= main@%.01.i_1 main@%.01.i_0))
         main@_bb_0)
    (main@_bb main@%.01.i_1
              main@%_4_0
              main@%_6_0
              main@%shadow.mem.0.0_1
              main@%_1_0
              @__VERIFIER_nondet_short_0
              @__VERIFIER_nondet_int_0)))
(rule (=> (and (main@_bb main@%.01.i_0
                   main@%_4_0
                   main@%_6_0
                   main@%shadow.mem.0.0_0
                   main@%_1_0
                   @__VERIFIER_nondet_short_0
                   @__VERIFIER_nondet_int_0)
         true
         (= main@%_8_0 main@%_1_0)
         (= main@%_9_0 (< main@%.01.i_0 main@%_8_0))
         (=> main@_bb8_0 (and main@_bb8_0 main@_bb_0))
         (=> (and main@_bb8_0 main@_bb_0) (not main@%_9_0))
         (=> main@_bb9_0 (and main@_bb9_0 main@_bb8_0))
         (=> (and main@_bb9_0 main@_bb8_0)
             (= main@%shadow.mem.0.2_0 main@%shadow.mem.0.0_0))
         (=> (and main@_bb9_0 main@_bb8_0)
             (= main@%shadow.mem.0.2_1 main@%shadow.mem.0.2_0))
         main@_bb9_0)
    (main@_bb9 main@%_4_0
               main@%_6_0
               main@%_1_0
               main@%shadow.mem.0.2_1
               @__VERIFIER_nondet_short_0
               @__VERIFIER_nondet_int_0)))
(rule (=> (and (main@_bb main@%.01.i_0
                   main@%_4_0
                   main@%_6_0
                   main@%shadow.mem.0.0_0
                   main@%_1_0
                   @__VERIFIER_nondet_short_0
                   @__VERIFIER_nondet_int_0)
         true
         (= main@%_8_0 main@%_1_0)
         (= main@%_9_0 (< main@%.01.i_0 main@%_8_0))
         (=> main@_bb4_0 (and main@_bb4_0 main@_bb_0))
         (=> (and main@_bb4_0 main@_bb_0) main@%_9_0)
         (=> main@_bb5_0 (and main@_bb5_0 main@_bb4_0))
         (=> (and main@_bb5_0 main@_bb4_0)
             (= main@%shadow.mem.0.1_0 main@%shadow.mem.0.0_0))
         (=> (and main@_bb5_0 main@_bb4_0) (= main@%.03.i_0 0))
         (=> (and main@_bb5_0 main@_bb4_0)
             (= main@%shadow.mem.0.1_1 main@%shadow.mem.0.1_0))
         (=> (and main@_bb5_0 main@_bb4_0) (= main@%.03.i_1 main@%.03.i_0))
         main@_bb5_0)
    (main@_bb5 main@%.01.i_0
               main@%_4_0
               main@%_6_0
               main@%.03.i_1
               main@%shadow.mem.0.1_1
               main@%_1_0
               @__VERIFIER_nondet_short_0
               @__VERIFIER_nondet_int_0)))
(rule (let ((a!1 (and (main@_bb9 main@%_4_0
                           main@%_6_0
                           main@%_1_0
                           main@%shadow.mem.0.2_0
                           @__VERIFIER_nondet_short_0
                           @__VERIFIER_nondet_int_0)
                true
                (= main@%_23_0 @__VERIFIER_nondet_short_0)
                (= main@%_25_0 @__VERIFIER_nondet_short_0)
                (= main@%_27_0 (> main@%_24_0 (- 1)))
                (= main@%_28_0 (< main@%_24_0 main@%_1_0))
                (= main@%..i_0 (and main@%_27_0 main@%_28_0))
                main@%..i_0
                (= main@%_29_0 (> main@%_26_0 (- 1)))
                (= main@%_30_0 (< main@%_26_0 main@%_1_0))
                (= main@%_31_0 (and main@%_29_0 main@%_30_0))
                main@%_31_0
                (= main@%_32_0 main@%_24_0)
                (= main@%_34_0 (+ main@%_6_0 (* main@%_33_0 4)))
                (or (<= main@%_6_0 0) (> main@%_34_0 0))
                (= main@%_35_0 main@%_26_0)
                (= main@%_36_0 (+ main@%_34_0 (* main@%_35_0 4)))
                (or (<= main@%_34_0 0) (> main@%_36_0 0))
                (> main@%_34_0 0)
                (= main@%sm1_0 (store main@%shadow.mem.0.2_0 main@%_36_0 (- 1)))
                (= main@%_37_0 main@%_26_0)
                (= main@%_39_0 (+ main@%_6_0 (* main@%_38_0 4)))
                (or (<= main@%_6_0 0) (> main@%_39_0 0))
                (= main@%_40_0 main@%_24_0)
                (= main@%_41_0 (+ main@%_39_0 (* main@%_40_0 4)))
                (or (<= main@%_39_0 0) (> main@%_41_0 0))
                (> main@%_39_0 0)
                (= main@%sm2_0 (store main@%sm1_0 main@%_41_0 1))
                (= main@%_42_0 @__VERIFIER_nondet_int_0)
                (= main@%_44_0 (= main@%_43_0 0))
                (=> main@_bb10_0 (and main@_bb10_0 main@_bb9_0))
                (=> (and main@_bb10_0 main@_bb9_0) (not main@%_44_0))
                (=> main@_bb9_1 (and main@_bb9_1 main@_bb10_0))
                (=> (and main@_bb9_1 main@_bb10_0)
                    (= main@%shadow.mem.0.2_1 main@%sm2_0))
                (=> (and main@_bb9_1 main@_bb10_0)
                    (= main@%shadow.mem.0.2_2 main@%shadow.mem.0.2_1))
                main@_bb9_1)))
  (=> a!1
      (main@_bb9 main@%_4_0
                 main@%_6_0
                 main@%_1_0
                 main@%shadow.mem.0.2_2
                 @__VERIFIER_nondet_short_0
                 @__VERIFIER_nondet_int_0))))
(rule (let ((a!1 (and (main@_bb9 main@%_4_0
                           main@%_6_0
                           main@%_1_0
                           main@%shadow.mem.0.2_0
                           @__VERIFIER_nondet_short_0
                           @__VERIFIER_nondet_int_0)
                true
                (= main@%_23_0 @__VERIFIER_nondet_short_0)
                (= main@%_25_0 @__VERIFIER_nondet_short_0)
                (= main@%_27_0 (> main@%_24_0 (- 1)))
                (= main@%_28_0 (< main@%_24_0 main@%_1_0))
                (= main@%..i_0 (and main@%_27_0 main@%_28_0))
                main@%..i_0
                (= main@%_29_0 (> main@%_26_0 (- 1)))
                (= main@%_30_0 (< main@%_26_0 main@%_1_0))
                (= main@%_31_0 (and main@%_29_0 main@%_30_0))
                main@%_31_0
                (= main@%_32_0 main@%_24_0)
                (= main@%_34_0 (+ main@%_6_0 (* main@%_33_0 4)))
                (or (<= main@%_6_0 0) (> main@%_34_0 0))
                (= main@%_35_0 main@%_26_0)
                (= main@%_36_0 (+ main@%_34_0 (* main@%_35_0 4)))
                (or (<= main@%_34_0 0) (> main@%_36_0 0))
                (> main@%_34_0 0)
                (= main@%sm1_0 (store main@%shadow.mem.0.2_0 main@%_36_0 (- 1)))
                (= main@%_37_0 main@%_26_0)
                (= main@%_39_0 (+ main@%_6_0 (* main@%_38_0 4)))
                (or (<= main@%_6_0 0) (> main@%_39_0 0))
                (= main@%_40_0 main@%_24_0)
                (= main@%_41_0 (+ main@%_39_0 (* main@%_40_0 4)))
                (or (<= main@%_39_0 0) (> main@%_41_0 0))
                (> main@%_39_0 0)
                (= main@%sm2_0 (store main@%sm1_0 main@%_41_0 1))
                (= main@%_42_0 @__VERIFIER_nondet_int_0)
                (= main@%_44_0 (= main@%_43_0 0))
                (=> main@_bb11_0 (and main@_bb11_0 main@_bb9_0))
                (=> (and main@_bb11_0 main@_bb9_0) main@%_44_0)
                (=> main@_bb12_0 (and main@_bb12_0 main@_bb11_0))
                (=> (and main@_bb12_0 main@_bb11_0) (= main@%.12.i_0 0))
                (=> (and main@_bb12_0 main@_bb11_0) (= main@%.0.i_0 0))
                (=> (and main@_bb12_0 main@_bb11_0)
                    (= main@%.12.i_1 main@%.12.i_0))
                (=> (and main@_bb12_0 main@_bb11_0)
                    (= main@%.0.i_1 main@%.0.i_0))
                main@_bb12_0)))
  (=> a!1
      (main@_bb12 main@%_4_0
                  main@%_6_0
                  main@%_1_0
                  main@%.12.i_1
                  main@%sm2_0
                  main@%.0.i_1))))
(rule (let ((a!1 (and (main@_bb12 main@%_4_0
                            main@%_6_0
                            main@%_1_0
                            main@%.12.i_0
                            main@%sm2_0
                            main@%.0.i_0)
                true
                (= main@%_48_0 main@%_1_0)
                (= main@%_49_0 (< main@%.12.i_0 main@%_48_0))
                (=> main@orig.main.exit_0
                    (and main@orig.main.exit_0 main@_bb12_0))
                (=> (and main@orig.main.exit_0 main@_bb12_0) (not main@%_49_0))
                (=> main@orig.main.exit_0
                    (= main@%_64_0 (> main@%.0.i_0 (- 1))))
                (=> main@orig.main.exit_0 (= main@%_65_0 main@%_1_0))
                (=> main@orig.main.exit_0
                    (= main@%_66_0 (<= main@%.0.i_0 main@%_65_0)))
                (=> main@orig.main.exit_0
                    (= main@%narrow.i_0 (and main@%_64_0 main@%_66_0)))
                (=> main@orig.main.exit_0
                    (= main@%_67_0 (ite main@%narrow.i_0 1 0)))
                (=> main@orig.main.exit_0 (not main@%_68_0))
                (=> main@precall_0 (and main@precall_0 main@orig.main.exit_0))
                (=> main@__VERIFIER_assert_0
                    (and main@__VERIFIER_assert_0 main@precall_0))
                (=> main@__VERIFIER_assert_0 (= main@%_69_0 (= main@%_67_0 0)))
                (=> main@__VERIFIER_assert_0 main@%_69_0)
                (=> main@_bb17_0 (and main@_bb17_0 main@__VERIFIER_assert_0))
                (=> main@verifier.error_0
                    (and main@verifier.error_0 main@_bb17_0))
                (=> main@verifier.error.split_0
                    (and main@verifier.error.split_0 main@verifier.error_0))
                main@verifier.error.split_0)))
  (=> a!1 main@verifier.error.split)))
(rule (=> (and (main@_bb12 main@%_4_0
                     main@%_6_0
                     main@%_1_0
                     main@%.12.i_0
                     main@%sm2_0
                     main@%.0.i_0)
         true
         (= main@%_48_0 main@%_1_0)
         (= main@%_49_0 (< main@%.12.i_0 main@%_48_0))
         (=> main@_bb13_0 (and main@_bb13_0 main@_bb12_0))
         (=> (and main@_bb13_0 main@_bb12_0) main@%_49_0)
         (=> main@_bb14_0 (and main@_bb14_0 main@_bb13_0))
         (=> (and main@_bb14_0 main@_bb13_0) (= main@%.14.i_0 0))
         (=> (and main@_bb14_0 main@_bb13_0) (= main@%.1.i_0 main@%.0.i_0))
         (=> (and main@_bb14_0 main@_bb13_0) (= main@%.14.i_1 main@%.14.i_0))
         (=> (and main@_bb14_0 main@_bb13_0) (= main@%.1.i_1 main@%.1.i_0))
         main@_bb14_0)
    (main@_bb14 main@%_4_0
                main@%_6_0
                main@%_1_0
                main@%.12.i_0
                main@%.14.i_1
                main@%sm2_0
                main@%.1.i_1)))
(rule (let ((a!1 (and (main@_bb14 main@%_4_0
                            main@%_6_0
                            main@%_1_0
                            main@%.12.i_0
                            main@%.14.i_0
                            main@%sm2_0
                            main@%.1.i_0)
                true
                (= main@%_52_0 main@%_1_0)
                (= main@%_53_0 (< main@%.14.i_0 main@%_52_0))
                (=> main@_bb16_0 (and main@_bb16_0 main@_bb14_0))
                (=> (and main@_bb16_0 main@_bb14_0) (not main@%_53_0))
                (=> main@_bb16_0 (= main@%_63_0 (+ main@%.12.i_0 1)))
                (=> main@_bb12_0 (and main@_bb12_0 main@_bb16_0))
                (=> (and main@_bb12_0 main@_bb16_0)
                    (= main@%.12.i_1 main@%_63_0))
                (=> (and main@_bb12_0 main@_bb16_0)
                    (= main@%.0.i_0 main@%.1.i_0))
                (=> (and main@_bb12_0 main@_bb16_0)
                    (= main@%.12.i_2 main@%.12.i_1))
                (=> (and main@_bb12_0 main@_bb16_0)
                    (= main@%.0.i_1 main@%.0.i_0))
                main@_bb12_0)))
  (=> a!1
      (main@_bb12 main@%_4_0
                  main@%_6_0
                  main@%_1_0
                  main@%.12.i_2
                  main@%sm2_0
                  main@%.0.i_1))))
(rule (let ((a!1 (=> main@_bb15_0 (= main@%_56_0 (+ main@%_6_0 (* main@%_55_0 4)))))
      (a!2 (=> main@_bb15_0 (= main@%_57_0 (+ main@%_56_0 (* main@%.14.i_0 4))))))
(let ((a!3 (and (main@_bb14 main@%_4_0
                            main@%_6_0
                            main@%_1_0
                            main@%.12.i_0
                            main@%.14.i_0
                            main@%sm2_0
                            main@%.1.i_0)
                true
                (= main@%_52_0 main@%_1_0)
                (= main@%_53_0 (< main@%.14.i_0 main@%_52_0))
                (=> main@_bb15_0 (and main@_bb15_0 main@_bb14_0))
                (=> (and main@_bb15_0 main@_bb14_0) main@%_53_0)
                a!1
                (=> main@_bb15_0 (or (<= main@%_6_0 0) (> main@%_56_0 0)))
                a!2
                (=> main@_bb15_0 (or (<= main@%_56_0 0) (> main@%_57_0 0)))
                (=> main@_bb15_0 (> main@%_56_0 0))
                (=> main@_bb15_0
                    (= main@%_58_0 (select main@%sm2_0 main@%_57_0)))
                (=> main@_bb15_0 (= main@%_59_0 main@%_58_0))
                (=> main@_bb15_0 (= main@%_60_0 (+ main@%.1.i_0 main@%_59_0)))
                (=> main@_bb15_0 (= main@%_61_0 (+ main@%.14.i_0 1)))
                (=> main@_bb14_1 (and main@_bb14_1 main@_bb15_0))
                (=> (and main@_bb14_1 main@_bb15_0)
                    (= main@%.14.i_1 main@%_61_0))
                (=> (and main@_bb14_1 main@_bb15_0)
                    (= main@%.1.i_1 main@%_60_0))
                (=> (and main@_bb14_1 main@_bb15_0)
                    (= main@%.14.i_2 main@%.14.i_1))
                (=> (and main@_bb14_1 main@_bb15_0)
                    (= main@%.1.i_2 main@%.1.i_1))
                main@_bb14_1)))
  (=> a!3
      (main@_bb14 main@%_4_0
                  main@%_6_0
                  main@%_1_0
                  main@%.12.i_0
                  main@%.14.i_2
                  main@%sm2_0
                  main@%.1.i_2)))))
(rule (let ((a!1 (and (main@_bb5 main@%.01.i_0
                           main@%_4_0
                           main@%_6_0
                           main@%.03.i_0
                           main@%shadow.mem.0.1_0
                           main@%_1_0
                           @__VERIFIER_nondet_short_0
                           @__VERIFIER_nondet_int_0)
                true
                (= main@%_12_0 main@%_1_0)
                (= main@%_13_0 (< main@%.03.i_0 main@%_12_0))
                (=> main@_bb7_0 (and main@_bb7_0 main@_bb5_0))
                (=> (and main@_bb7_0 main@_bb5_0) (not main@%_13_0))
                (=> main@_bb7_0 (= main@%_20_0 (+ main@%.01.i_0 1)))
                (=> main@_bb_0 (and main@_bb_0 main@_bb7_0))
                (=> (and main@_bb_0 main@_bb7_0)
                    (= main@%shadow.mem.0.0_0 main@%shadow.mem.0.1_0))
                (=> (and main@_bb_0 main@_bb7_0) (= main@%.01.i_1 main@%_20_0))
                (=> (and main@_bb_0 main@_bb7_0)
                    (= main@%shadow.mem.0.0_1 main@%shadow.mem.0.0_0))
                (=> (and main@_bb_0 main@_bb7_0)
                    (= main@%.01.i_2 main@%.01.i_1))
                main@_bb_0)))
  (=> a!1
      (main@_bb main@%.01.i_2
                main@%_4_0
                main@%_6_0
                main@%shadow.mem.0.0_1
                main@%_1_0
                @__VERIFIER_nondet_short_0
                @__VERIFIER_nondet_int_0))))
(rule (let ((a!1 (=> main@_bb6_0 (= main@%_16_0 (+ main@%_6_0 (* main@%_15_0 4)))))
      (a!2 (=> main@_bb6_0 (= main@%_17_0 (+ main@%_16_0 (* main@%.03.i_0 4))))))
(let ((a!3 (and (main@_bb5 main@%.01.i_0
                           main@%_4_0
                           main@%_6_0
                           main@%.03.i_0
                           main@%shadow.mem.0.1_0
                           main@%_1_0
                           @__VERIFIER_nondet_short_0
                           @__VERIFIER_nondet_int_0)
                true
                (= main@%_12_0 main@%_1_0)
                (= main@%_13_0 (< main@%.03.i_0 main@%_12_0))
                (=> main@_bb6_0 (and main@_bb6_0 main@_bb5_0))
                (=> (and main@_bb6_0 main@_bb5_0) main@%_13_0)
                a!1
                (=> main@_bb6_0 (or (<= main@%_6_0 0) (> main@%_16_0 0)))
                a!2
                (=> main@_bb6_0 (or (<= main@%_16_0 0) (> main@%_17_0 0)))
                (=> main@_bb6_0 (> main@%_16_0 0))
                (=> main@_bb6_0
                    (= main@%sm_0 (store main@%shadow.mem.0.1_0 main@%_17_0 0)))
                (=> main@_bb6_0 (= main@%_18_0 (+ main@%.03.i_0 1)))
                (=> main@_bb5_1 (and main@_bb5_1 main@_bb6_0))
                (=> (and main@_bb5_1 main@_bb6_0)
                    (= main@%shadow.mem.0.1_1 main@%sm_0))
                (=> (and main@_bb5_1 main@_bb6_0) (= main@%.03.i_1 main@%_18_0))
                (=> (and main@_bb5_1 main@_bb6_0)
                    (= main@%shadow.mem.0.1_2 main@%shadow.mem.0.1_1))
                (=> (and main@_bb5_1 main@_bb6_0)
                    (= main@%.03.i_2 main@%.03.i_1))
                main@_bb5_1)))
  (=> a!3
      (main@_bb5 main@%.01.i_0
                 main@%_4_0
                 main@%_6_0
                 main@%.03.i_2
                 main@%shadow.mem.0.1_2
                 main@%_1_0
                 @__VERIFIER_nondet_short_0
                 @__VERIFIER_nondet_int_0)))))
(query main@verifier.error.split)

